NAME : cgl_60.10144.tour
COMMENT : Length = 10144
COMMENT : Found by LKH-3 [Keld Helsgaun] Thu Jun 26 21:26:49 2025
TYPE : TOUR
DIMENSION : 61
TOUR_SECTION
32
36
40
30
34
33
37
38
39
31
35
41
61
5
4
3
2
1
11
6
7
10
9
8
12
13
14
15
16
17
18
19
60
59
58
57
48
51
53
56
52
50
54
55
49
47
46
45
44
20
21
43
22
27
25
24
26
23
42
28
29
-1
EOF
